Version identifier: 22.1.1.0 | 2022-11-28 | 9160aff4d
CPXPARAM_ClockType                               1
CPXPARAM_Read_DataCheck                          1
CPXPARAM_Threads                                 1
CPXPARAM_TimeLimit                               7200
CPXPARAM_MIP_Tolerances_AbsMIPGap                0
CPXPARAM_MIP_Tolerances_MIPGap                   0
CPXPARAM_MIP_Tolerances_Integrality              0
Tried aggregator 5 times.
MIP Presolve eliminated 36794 rows and 3519 columns.
MIP Presolve modified 6452 coefficients.
Aggregator did 3501 substitutions.
Reduced MIP has 23492 rows, 17739 columns, and 101748 nonzeros.
Reduced MIP has 17739 binaries, 0 generals, 0 SOSs, and 0 indicators.
Presolve time = 0.28 sec. (207.09 ticks)
Probing time = 0.02 sec. (8.55 ticks)
Tried aggregator 1 time.
Detecting symmetries...
MIP Presolve eliminated 0 rows and 1 columns.
Reduced MIP has 23492 rows, 17738 columns, and 101747 nonzeros.
Reduced MIP has 17738 binaries, 0 generals, 0 SOSs, and 0 indicators.
Presolve time = 0.10 sec. (65.66 ticks)
Probing time = 0.01 sec. (6.64 ticks)
Clique table members: 5062.
MIP emphasis: balance optimality and feasibility.
MIP search method: dynamic search.
Parallel mode: none, using 1 thread.
Root relaxation solution time = 176.00 sec. (136564.77 ticks)

        Nodes                                         Cuts/
   Node  Left     Objective  IInf  Best Integer    Best Bound    ItCnt     Gap

      0     0     5138.1667  3290                   5138.1667   105549         
      0     0     5053.2857  3739                   Cuts: 731   172466         
      0     0     5045.0952  4244                   Cuts: 599   247432         
      0     0     5043.6667  4318                   Cuts: 676   325983         
      0     0     5042.6667  4595                   Cuts: 578   392848         
      0     0     5042.0000  4632                   Cuts: 634   471261         
Detecting symmetries...
      0     0     5042.0000  4583                   Cuts: 716   540733         
      0     0     5042.0000  4754                   Cuts: 577   611878         
Heuristic still looking.
Detecting symmetries...
      0     2     5042.0000  4754                   5042.0000   611878         
Elapsed time = 1539.70 sec. (1153326.45 ticks, tree = 0.01 MB, solutions = 0)
      1     3     5042.0000  4777                   5042.0000   736974         
      2     4     5042.0000  5008                   5042.0000   814613         
      3     5     5042.0000  4807                   5042.0000   890947         
      4     6     5042.0000  4738                   5042.0000   979897         
      5     7     5042.0000  4884                   5042.0000  1012173         
      6     8     5042.0000  4741                   5042.0000  1242819         
      7     9     5042.0000  4860                   5042.0000  1448657         
      8    10     5042.0000  4531                   5042.0000  1458061         
      9    11     5042.0000  4399                   5042.0000  1463811         
     10    12     5042.0000  4788                   5042.0000  1481952         
Elapsed time = 3169.16 sec. (2300218.09 ticks, tree = 0.43 MB, solutions = 0)
     11    13     5042.0000  4963                   5042.0000  1521569         
     12    14     5042.0000  4315                   5042.0000  1536555         
     13    15     5042.0000  4363                   5042.0000  1545648         
     14    16     5042.0000  4200                   5042.0000  1553739         
     15    17     5042.0000  4277                   5042.0000  1563024         
     16    18     5042.0000  4143                   5042.0000  1577920         
     17    19     5042.0000  4154                   5042.0000  1586188         
     18    20     5042.0000  4825                   5042.0000  1613877         
     19    21     5042.0000  4059                   5042.0000  1626969         
     20    22     5042.0000  4169                   5042.0000  1633603         
Elapsed time = 3498.96 sec. (2552126.80 ticks, tree = 0.49 MB, solutions = 0)
     21    23     5042.0000  4779                   5042.0000  1664555         
     22    24     5042.0000  4078                   5042.0000  1676079         
     23    25     5042.0000  4199                   5042.0000  1716101         
     24    26     5042.0000  4369                   5042.0000  1738116         
     25    27     5042.0000  3985                   5042.0000  1755561         
     26    28     5042.0000  4189                   5042.0000  1775397         
     27    29     5042.0000  4283                   5042.0000  1791029         
     28    30     5042.0000  4475                   5042.0000  1820656         
     29    31     5042.0000  4520                   5042.0000  1877451         
     30    32     5042.0000  3965                   5042.0000  1897826         
Elapsed time = 3960.11 sec. (2892671.27 ticks, tree = 0.74 MB, solutions = 0)
     31    33     5042.0000  4509                   5042.0000  1918456         
     32    34     5042.0000  4117                   5042.0000  1943811         
     33    35     5042.0000  3863                   5042.0000  1955628         
     34    36     5042.0000  3794                   5042.0000  1966800         
     35    37     5042.0000  3831                   5042.0000  1973571         
     36    38     5042.0000  3791                   5042.0000  1979355         
     37    39     5042.0000  3718                   5042.0000  1986798         
     38    40     5042.0000  3868                   5042.0000  1995122         
     39    41     5042.0000  3693                   5042.0000  2007598         
     40    42     5042.0000  3689                   5042.0000  2013102         
Elapsed time = 4149.71 sec. (3035775.42 ticks, tree = 1.14 MB, solutions = 0)
     41    43     5042.0000  4529                   5042.0000  2031374         
     42    44     5042.0000  4060                   5042.0000  2046826         
     43    45     5042.0000  4077                   5042.0000  2080163         
     44    46     5042.0000  4041                   5042.0000  2118873         
     45    47     5042.0000  3997                   5042.0000  2181866         
     46    48     5042.0000  4066                   5042.0000  2205175         
     47    49     5042.0000  3876                   5042.0000  2240594         
     48    50     5042.0000  3583                   5042.0000  2294123         
     49    51     5042.0000  3340                   5042.0000  2304574         
     50    52     5042.0000  3841                   5042.0000  2322649         
Elapsed time = 4704.37 sec. (3428548.16 ticks, tree = 1.75 MB, solutions = 0)
     51    53     5042.0000  4688                   5042.0000  2410873         
     52    54     5042.0000  3454                   5042.0000  2443655         
     53    55     5042.0000  3349                   5042.0000  2460689         
     54    56     5042.0000  3562                   5042.0000  2497734         
     55    57     5042.0000  3567                   5042.0000  2531486         
     56    58     5042.0000  3973                   5042.0000  2545706         
     57    59     5042.0000  3120                   5042.0000  2555773         
     58    60     5042.0000  3477                   5042.0000  2586084         
     59    61     5042.0000  3180                   5042.0000  2619044         
     60    62     5042.0000  3125                   5042.0000  2626591         
Elapsed time = 5231.55 sec. (3768216.63 ticks, tree = 2.14 MB, solutions = 0)
     61    63     5042.0000  3028                   5042.0000  2636972         
     62    64     5042.0000  3139                   5042.0000  2651123         
     63    65     5042.0000  3100                   5042.0000  2662833         
     64    66     5042.0000  3335                   5042.0000  2673266         
     65    67     5042.0000  3191                   5042.0000  2710913         
     66    68     5042.0000  3246                   5042.0000  2736472         
     67    69     5042.0000  2755                   5042.0000  2772087         
     68    70     5042.0000  2916                   5042.0000  2788003         
     69    71     5042.0000  2672                   5042.0000  2796393         
     70    72     5042.0000  2698                   5042.0000  2806887         
Elapsed time = 5561.65 sec. (3988007.22 ticks, tree = 2.22 MB, solutions = 0)
     71    73     5042.0000  2620                   5042.0000  2812308         
     72    74     5042.0000  2672                   5042.0000  2821018         
     73    75     5042.0000  2598                   5042.0000  2828650         
     74    76     5042.0000  2581                   5042.0000  2838156         
     75    77     5042.0000  2624                   5042.0000  2875741         
     76    78     5042.0000  2502                   5042.0000  2887385         
     77    79     5042.0000  2480                   5042.0000  2894560         
     78    80     5042.0000  2736                   5042.0000  2915763         
     79    81     5042.0000  2470                   5042.0000  2929173         
     80    82     5042.0000  2295                   5042.0000  2938139         
Elapsed time = 5828.54 sec. (4171414.86 ticks, tree = 2.31 MB, solutions = 0)
     81    83     5042.0000  2384                   5042.0000  2942121         
     82    84     5042.0000  2121                   5042.0000  2949493         
     83    85     5042.0000  2112                   5042.0000  2961199         
     84    86     5042.0000  2368                   5042.0000  2977105         
     85    87     5042.0000  2173                   5042.0000  2988586         
     86    88     5042.0000  2161                   5042.0000  2996903         
     87    89     5042.0000  2052                   5042.0000  3010766         
     88    90     5042.0000  2252                   5042.0000  3025589         
     89    91     5042.0000  2253                   5042.0000  3040549         
     90    92     5042.0000  2180                   5042.0000  3060537         
Elapsed time = 6014.42 sec. (4287158.21 ticks, tree = 2.40 MB, solutions = 0)
     91    93     5042.0000  1952                   5042.0000  3074055         
     92    94     5042.0000  1938                   5042.0000  3082617         
     93    95     5042.0000  2800                   5042.0000  3117832         
     94    96     5042.0000  1875                   5042.0000  3148575         
     95    97     5042.0000  2334                   5042.0000  3206319         
     96    98     5042.0000  3076                   5042.0000  3225390         
     97    99     5041.9641  3203                   5042.0000  3274588         
     98   100     5042.0000  2021                   5042.0000  3290844         
     99   101     5042.0000  2814                   5042.0000  3313989         
    100   102     5042.0000  1674                   5042.0000  3337039         
Elapsed time = 6489.70 sec. (4561896.61 ticks, tree = 2.48 MB, solutions = 0)
    101   103     5042.0000  1625                   5042.0000  3357767         
    102   104     5042.0000  2249                   5042.0000  3372484         
    103   105     5042.0000  1598                   5042.0000  3402951         
    104   106     5041.9817  1818                   5042.0000  3508627         
    105   107     5042.0000  2148                   5042.0000  3522479         
    106   108     5042.0000  2756                   5042.0000  3558644         
    107   109     5041.9400  2027                   5042.0000  3582843         
    108   110     5041.8006  2106                   5042.0000  3609841         
    109   111     5041.7848  1973                   5042.0000  3621436         
    110   112     5041.8006  2139                   5042.0000  3631311         
Elapsed time = 7019.52 sec. (4841464.12 ticks, tree = 2.57 MB, solutions = 0)
    111   113     5041.8006  1946                   5042.0000  3637643         
    112   114     5041.7918  1888                   5042.0000  3644553         
    113   115     5041.7930  1935                   5042.0000  3656727         
    114   116     5041.7240  1966                   5042.0000  3662756         
    115   117     5041.7930  1944                   5042.0000  3669594         
    117   119     5041.7028  1948                   5042.0000  3684648         
    118   120     5041.7921  2663                   5042.0000  3712382         
    119   121     5041.7921  1875                   5042.0000  3735166         

Clique cuts applied:  18
Cover cuts applied:  4
Implied bound cuts applied:  10
Zero-half cuts applied:  811
Gomory fractional cuts applied:  4

Root node processing (before b&c):
  Real time             = 1539.68 sec. (1153312.83 ticks)
Sequential b&c:
  Real time             = 5660.34 sec. (3779098.15 ticks)
                          ------------
Total (root+branch&cut) = 7200.02 sec. (4932410.98 ticks)
Solution is infeasible.

---------------------
@@@ MIP_time_limit_infeasible
Traceback (most recent call last):
  File "/scratch/scherif/DiverseSAT-journal_sup/DiverseSAT_Supplementary_Experiments/experiment-1/cplex/jobs/../solvers/CPLEX-BIN-SE.py", line 134, in <module>
    print(f">>> Benchmark {os.path.basename(cnf_file)} k {k} OPT {int(prob.solution.get_objective_value())}"
  File "/users/scherif/.local/lib/python3.9/site-packages/cplex/_internal/_subinterfaces.py", line 7211, in get_objective_value
    return CPX_PROC.getobjval(self._env._e, self._cplex._lp)
  File "/users/scherif/.local/lib/python3.9/site-packages/cplex/_internal/_procedural.py", line 2055, in getobjval
    check_status(env, status)
  File "/users/scherif/.local/lib/python3.9/site-packages/cplex/_internal/_procedural.py", line 249, in __call__
    raise CplexSolverError(error_string, env, status)
cplex.exceptions.errors.CplexSolverError: CPLEX Error  1217: No solution exists.
